1 1 1477398
1 2 1464441
1 3 1494399
1 4 1462309
1 5 1492462
2 1 973482
2 2 968617
2 3 976887
2 4 975770
2 5 947219
3 1 5299973 *
3 2 5279599 *
3 3 5227517 *
3 4 5320811 *
3 5 5251871 *
4 1 1058360
4 2 1050553
4 3 1057271
4 4 1052324
4 5 1059397
5 1 5506970
5 2 5482791
5 3 5446763 *
5 4 5517165 *
5 5 5463544 *
